p cnf 324 1
324 0
w 1 0.517435
w 2 1 0.723999
w 2 -1 0.553372
w 3 2 1
w 3 -2 0
w 4 3 1
w 4 -3 0
w 5 4 0
w 5 -4 1
w 6 5 1
w 6 -5 0
w 7 6 0.0959049
w 7 -6 0.788647
w 8 7 1
w 8 -7 0
w 9 8 1
w 9 -8 0
w 10 9 0.730094
w 10 -9 0.111259
w 11 10 1
w 11 -10 0
w 12 11 0
w 12 -11 1
w 13 12 1
w 13 -12 0
w 14 13 1
w 14 -13 0
w 15 14 0.780401
w 15 -14 0.860629
w 16 15 1
w 16 -15 0
w 17 16 1
w 17 -16 0
w 18 17 0.430536
w 18 -17 0.016888
w 19 1 0
w 19 -1 1
w 20 19 2 0
w 20 19 -2 0
w 20 -19 2 1
w 20 -19 -2 1
w 21 20 3 1
w 21 20 -3 1
w 21 -20 3 0
w 21 -20 -3 1
w 22 21 4 0.0321444
w 22 21 -4 0.314484
w 22 -21 4 0.790413
w 22 -21 -4 0.602821
w 23 22 5 0
w 23 22 -5 1
w 23 -22 5 1
w 23 -22 -5 0
w 24 23 6 0
w 24 23 -6 1
w 24 -23 6 0
w 24 -23 -6 0
w 25 24 7 0.733527
w 25 24 -7 0.465636
w 25 -24 7 0.875691
w 25 -24 -7 0.796672
w 26 25 8 1
w 26 25 -8 0
w 26 -25 8 0
w 26 -25 -8 0
w 27 26 9 1
w 27 26 -9 1
w 27 -26 9 0
w 27 -26 -9 0
w 28 27 10 0.641672
w 28 27 -10 0.0157669
w 28 -27 10 0.57472
w 28 -27 -10 0.244493
w 29 28 11 0
w 29 28 -11 0
w 29 -28 11 1
w 29 -28 -11 0
w 30 29 12 0.787273
w 30 29 -12 0.850228
w 30 -29 12 0.736429
w 30 -29 -12 0.0902633
w 31 30 13 1
w 31 30 -13 0
w 31 -30 13 1
w 31 -30 -13 0
w 32 31 14 0
w 32 31 -14 1
w 32 -31 14 1
w 32 -31 -14 0
w 33 32 15 1
w 33 32 -15 1
w 33 -32 15 1
w 33 -32 -15 0
w 34 33 16 0
w 34 33 -16 0
w 34 -33 16 0
w 34 -33 -16 1
w 35 34 17 0
w 35 34 -17 1
w 35 -34 17 1
w 35 -34 -17 1
w 36 35 18 0
w 36 35 -18 1
w 36 -35 18 1
w 36 -35 -18 1
w 37 19 0
w 37 -19 1
w 38 37 20 1
w 38 37 -20 0
w 38 -37 20 1
w 38 -37 -20 1
w 39 38 21 0
w 39 38 -21 1
w 39 -38 21 1
w 39 -38 -21 0
w 40 39 22 0
w 40 39 -22 0
w 40 -39 22 1
w 40 -39 -22 0
w 41 40 23 0
w 41 40 -23 0
w 41 -40 23 1
w 41 -40 -23 0
w 42 41 24 1
w 42 41 -24 1
w 42 -41 24 0
w 42 -41 -24 1
w 43 42 25 1
w 43 42 -25 1
w 43 -42 25 0
w 43 -42 -25 0
w 44 43 26 0.364514
w 44 43 -26 0.573736
w 44 -43 26 0.866385
w 44 -43 -26 0.622526
w 45 44 27 0.50399
w 45 44 -27 0.0211449
w 45 -44 27 0.663108
w 45 -44 -27 0.0279367
w 46 45 28 1
w 46 45 -28 0
w 46 -45 28 0
w 46 -45 -28 1
w 47 46 29 1
w 47 46 -29 1
w 47 -46 29 0
w 47 -46 -29 1
w 48 47 30 0
w 48 47 -30 0
w 48 -47 30 1
w 48 -47 -30 0
w 49 48 31 0
w 49 48 -31 0
w 49 -48 31 1
w 49 -48 -31 0
w 50 49 32 0.865709
w 50 49 -32 0.634324
w 50 -49 32 0.651217
w 50 -49 -32 0.488235
w 51 50 33 0
w 51 50 -33 0
w 51 -50 33 1
w 51 -50 -33 0
w 52 51 34 0.371803
w 52 51 -34 0.230896
w 52 -51 34 0.336944
w 52 -51 -34 0.876605
w 53 52 35 0
w 53 52 -35 0
w 53 -52 35 1
w 53 -52 -35 1
w 54 53 36 1
w 54 53 -36 1
w 54 -53 36 1
w 54 -53 -36 0
w 55 37 1
w 55 -37 0
w 56 55 38 1
w 56 55 -38 1
w 56 -55 38 0
w 56 -55 -38 0
w 57 56 39 0
w 57 56 -39 0
w 57 -56 39 0
w 57 -56 -39 1
w 58 57 40 0
w 58 57 -40 0
w 58 -57 40 1
w 58 -57 -40 0
w 59 58 41 0.624942
w 59 58 -41 0.328131
w 59 -58 41 0.724123
w 59 -58 -41 0.0609448
w 60 59 42 0.399788
w 60 59 -42 0.241444
w 60 -59 42 0.988771
w 60 -59 -42 0.744742
w 61 60 43 0
w 61 60 -43 0
w 61 -60 43 0
w 61 -60 -43 1
w 62 61 44 1
w 62 61 -44 0
w 62 -61 44 0
w 62 -61 -44 0
w 63 62 45 0
w 63 62 -45 0
w 63 -62 45 0
w 63 -62 -45 1
w 64 63 46 0.239677
w 64 63 -46 0.871625
w 64 -63 46 0.337229
w 64 -63 -46 0.230863
w 65 64 47 1
w 65 64 -47 0
w 65 -64 47 1
w 65 -64 -47 0
w 66 65 48 0
w 66 65 -48 0
w 66 -65 48 0
w 66 -65 -48 1
w 67 66 49 1
w 67 66 -49 1
w 67 -66 49 0
w 67 -66 -49 0
w 68 67 50 0
w 68 67 -50 0
w 68 -67 50 1
w 68 -67 -50 0
w 69 68 51 0.407924
w 69 68 -51 0.139378
w 69 -68 51 0.72777
w 69 -68 -51 0.557592
w 70 69 52 0
w 70 69 -52 1
w 70 -69 52 0
w 70 -69 -52 1
w 71 70 53 1
w 71 70 -53 0
w 71 -70 53 1
w 71 -70 -53 1
w 72 71 54 0.980015
w 72 71 -54 0.412377
w 72 -71 54 0.258029
w 72 -71 -54 0.361675
w 73 55 1
w 73 -55 0
w 74 73 56 0.112444
w 74 73 -56 0.39495
w 74 -73 56 0.802815
w 74 -73 -56 0.47468
w 75 74 57 0
w 75 74 -57 0
w 75 -74 57 0
w 75 -74 -57 1
w 76 75 58 0.844979
w 76 75 -58 0.279079
w 76 -75 58 0.456212
w 76 -75 -58 0.515932
w 77 76 59 0
w 77 76 -59 1
w 77 -76 59 0
w 77 -76 -59 0
w 78 77 60 1
w 78 77 -60 1
w 78 -77 60 1
w 78 -77 -60 0
w 79 78 61 0.745964
w 79 78 -61 0.0332958
w 79 -78 61 0.971055
w 79 -78 -61 0.466694
w 80 79 62 0.0834992
w 80 79 -62 0.861643
w 80 -79 62 0.592127
w 80 -79 -62 0.558179
w 81 80 63 1
w 81 80 -63 1
w 81 -80 63 0
w 81 -80 -63 1
w 82 81 64 1
w 82 81 -64 0
w 82 -81 64 0
w 82 -81 -64 0
w 83 82 65 0.499889
w 83 82 -65 0.716081
w 83 -82 65 0.0531358
w 83 -82 -65 0.489071
w 84 83 66 0
w 84 83 -66 0
w 84 -83 66 1
w 84 -83 -66 0
w 85 84 67 1
w 85 84 -67 0
w 85 -84 67 1
w 85 -84 -67 0
w 86 85 68 0
w 86 85 -68 1
w 86 -85 68 1
w 86 -85 -68 0
w 87 86 69 0
w 87 86 -69 1
w 87 -86 69 1
w 87 -86 -69 0
w 88 87 70 1
w 88 87 -70 0
w 88 -87 70 0
w 88 -87 -70 1
w 89 88 71 0.827699
w 89 88 -71 0.960084
w 89 -88 71 0.970263
w 89 -88 -71 0.31677
w 90 89 72 0
w 90 89 -72 0
w 90 -89 72 0
w 90 -89 -72 1
w 91 73 0
w 91 -73 1
w 92 91 74 1
w 92 91 -74 0
w 92 -91 74 1
w 92 -91 -74 1
w 93 92 75 0.651093
w 93 92 -75 0.0765284
w 93 -92 75 0.248347
w 93 -92 -75 0.196037
w 94 93 76 0
w 94 93 -76 0
w 94 -93 76 0
w 94 -93 -76 1
w 95 94 77 0
w 95 94 -77 0
w 95 -94 77 1
w 95 -94 -77 0
w 96 95 78 0.531489
w 96 95 -78 0.922169
w 96 -95 78 0.998792
w 96 -95 -78 0.246494
w 97 96 79 0
w 97 96 -79 0
w 97 -96 79 0
w 97 -96 -79 1
w 98 97 80 0.0416446
w 98 97 -80 0.40616
w 98 -97 80 0.778885
w 98 -97 -80 0.48698
w 99 98 81 0
w 99 98 -81 0
w 99 -98 81 1
w 99 -98 -81 1
w 100 99 82 1
w 100 99 -82 0
w 100 -99 82 0
w 100 -99 -82 1
w 101 100 83 0.462699
w 101 100 -83 0.638419
w 101 -100 83 0.690203
w 101 -100 -83 0.0239249
w 102 101 84 1
w 102 101 -84 0
w 102 -101 84 0
w 102 -101 -84 1
w 103 102 85 0.452502
w 103 102 -85 0.38506
w 103 -102 85 0.179771
w 103 -102 -85 0.121825
w 104 103 86 1
w 104 103 -86 0
w 104 -103 86 0
w 104 -103 -86 1
w 105 104 87 1
w 105 104 -87 1
w 105 -104 87 0
w 105 -104 -87 0
w 106 105 88 0.35693
w 106 105 -88 0.439137
w 106 -105 88 0.171588
w 106 -105 -88 0.175529
w 107 106 89 0
w 107 106 -89 0
w 107 -106 89 1
w 107 -106 -89 0
w 108 107 90 1
w 108 107 -90 1
w 108 -107 90 1
w 108 -107 -90 0
w 109 91 1
w 109 -91 0
w 110 109 92 0.104496
w 110 109 -92 0.199246
w 110 -109 92 0.922403
w 110 -109 -92 0.671018
w 111 110 93 1
w 111 110 -93 0
w 111 -110 93 1
w 111 -110 -93 0
w 112 111 94 0
w 112 111 -94 0
w 112 -111 94 1
w 112 -111 -94 1
w 113 112 95 1
w 113 112 -95 0
w 113 -112 95 1
w 113 -112 -95 1
w 114 113 96 0
w 114 113 -96 0
w 114 -113 96 1
w 114 -113 -96 1
w 115 114 97 0.628005
w 115 114 -97 0.000684656
w 115 -114 97 0.255765
w 115 -114 -97 0.347442
w 116 115 98 1
w 116 115 -98 1
w 116 -115 98 1
w 116 -115 -98 0
w 117 116 99 1
w 117 116 -99 0
w 117 -116 99 1
w 117 -116 -99 0
w 118 117 100 0.786678
w 118 117 -100 0.415727
w 118 -117 100 0.751221
w 118 -117 -100 0.835006
w 119 118 101 0.0584296
w 119 118 -101 0.322472
w 119 -118 101 0.740325
w 119 -118 -101 0.541167
w 120 119 102 1
w 120 119 -102 1
w 120 -119 102 0
w 120 -119 -102 1
w 121 120 103 0
w 121 120 -103 0
w 121 -120 103 1
w 121 -120 -103 0
w 122 121 104 0.466095
w 122 121 -104 0.0551856
w 122 -121 104 0.335241
w 122 -121 -104 0.685502
w 123 122 105 0
w 123 122 -105 1
w 123 -122 105 0
w 123 -122 -105 1
w 124 123 106 0
w 124 123 -106 1
w 124 -123 106 0
w 124 -123 -106 1
w 125 124 107 0.46353
w 125 124 -107 0.709144
w 125 -124 107 0.169011
w 125 -124 -107 0.203855
w 126 125 108 1
w 126 125 -108 0
w 126 -125 108 0
w 126 -125 -108 0
w 127 109 1
w 127 -109 0
w 128 127 110 0.129703
w 128 127 -110 0.80363
w 128 -127 110 0.856113
w 128 -127 -110 0.0130056
w 129 128 111 1
w 129 128 -111 0
w 129 -128 111 0
w 129 -128 -111 1
w 130 129 112 0.198039
w 130 129 -112 0.043783
w 130 -129 112 0.0313003
w 130 -129 -112 0.25361
w 131 130 113 0.0428328
w 131 130 -113 0.724908
w 131 -130 113 0.593991
w 131 -130 -113 0.889371
w 132 131 114 0
w 132 131 -114 0
w 132 -131 114 0
w 132 -131 -114 1
w 133 132 115 0
w 133 132 -115 0
w 133 -132 115 1
w 133 -132 -115 1
w 134 133 116 0.308651
w 134 133 -116 0.801825
w 134 -133 116 0.627214
w 134 -133 -116 0.164763
w 135 134 117 0.896939
w 135 134 -117 0.0760615
w 135 -134 117 0.163077
w 135 -134 -117 0.852166
w 136 135 118 1
w 136 135 -118 0
w 136 -135 118 1
w 136 -135 -118 0
w 137 136 119 0
w 137 136 -119 0
w 137 -136 119 1
w 137 -136 -119 1
w 138 137 120 0.217162
w 138 137 -120 0.905477
w 138 -137 120 0.99141
w 138 -137 -120 0.609456
w 139 138 121 0
w 139 138 -121 0
w 139 -138 121 1
w 139 -138 -121 1
w 140 139 122 0
w 140 139 -122 1
w 140 -139 122 1
w 140 -139 -122 1
w 141 140 123 0
w 141 140 -123 1
w 141 -140 123 0
w 141 -140 -123 1
w 142 141 124 0
w 142 141 -124 0
w 142 -141 124 1
w 142 -141 -124 1
w 143 142 125 0
w 143 142 -125 1
w 143 -142 125 0
w 143 -142 -125 1
w 144 143 126 1
w 144 143 -126 0
w 144 -143 126 0
w 144 -143 -126 1
w 145 127 1
w 145 -127 0
w 146 145 128 1
w 146 145 -128 0
w 146 -145 128 1
w 146 -145 -128 0
w 147 146 129 0
w 147 146 -129 0
w 147 -146 129 0
w 147 -146 -129 1
w 148 147 130 1
w 148 147 -130 1
w 148 -147 130 0
w 148 -147 -130 0
w 149 148 131 0
w 149 148 -131 1
w 149 -148 131 1
w 149 -148 -131 1
w 150 149 132 0
w 150 149 -132 1
w 150 -149 132 1
w 150 -149 -132 1
w 151 150 133 1
w 151 150 -133 0
w 151 -150 133 0
w 151 -150 -133 1
w 152 151 134 1
w 152 151 -134 0
w 152 -151 134 0
w 152 -151 -134 0
w 153 152 135 0
w 153 152 -135 1
w 153 -152 135 1
w 153 -152 -135 0
w 154 153 136 1
w 154 153 -136 1
w 154 -153 136 1
w 154 -153 -136 0
w 155 154 137 0
w 155 154 -137 0
w 155 -154 137 0
w 155 -154 -137 1
w 156 155 138 0
w 156 155 -138 0
w 156 -155 138 1
w 156 -155 -138 0
w 157 156 139 0.990369
w 157 156 -139 0.416731
w 157 -156 139 0.177539
w 157 -156 -139 0.0471479
w 158 157 140 0.780908
w 158 157 -140 0.125736
w 158 -157 140 0.528878
w 158 -157 -140 0.570878
w 159 158 141 1
w 159 158 -141 0
w 159 -158 141 0
w 159 -158 -141 0
w 160 159 142 0
w 160 159 -142 1
w 160 -159 142 1
w 160 -159 -142 1
w 161 160 143 1
w 161 160 -143 0
w 161 -160 143 0
w 161 -160 -143 0
w 162 161 144 1
w 162 161 -144 0
w 162 -161 144 1
w 162 -161 -144 1
w 163 145 0.528334
w 163 -145 0.788055
w 164 163 146 0
w 164 163 -146 0
w 164 -163 146 1
w 164 -163 -146 0
w 165 164 147 0
w 165 164 -147 1
w 165 -164 147 0
w 165 -164 -147 0
w 166 165 148 0.963514
w 166 165 -148 0.315612
w 166 -165 148 0.989858
w 166 -165 -148 0.418271
w 167 166 149 0.285835
w 167 166 -149 0.640064
w 167 -166 149 0.339835
w 167 -166 -149 0.533296
w 168 167 150 0
w 168 167 -150 1
w 168 -167 150 0
w 168 -167 -150 1
w 169 168 151 1
w 169 168 -151 0
w 169 -168 151 1
w 169 -168 -151 0
w 170 169 152 1
w 170 169 -152 0
w 170 -169 152 0
w 170 -169 -152 0
w 171 170 153 0
w 171 170 -153 0
w 171 -170 153 1
w 171 -170 -153 0
w 172 171 154 0
w 172 171 -154 0
w 172 -171 154 1
w 172 -171 -154 1
w 173 172 155 1
w 173 172 -155 1
w 173 -172 155 0
w 173 -172 -155 0
w 174 173 156 0.603041
w 174 173 -156 0.837833
w 174 -173 156 0.836306
w 174 -173 -156 0.532545
w 175 174 157 0
w 175 174 -157 0
w 175 -174 157 1
w 175 -174 -157 0
w 176 175 158 0.42716
w 176 175 -158 0.815638
w 176 -175 158 0.614137
w 176 -175 -158 0.874392
w 177 176 159 0
w 177 176 -159 0
w 177 -176 159 1
w 177 -176 -159 0
w 178 177 160 0
w 178 177 -160 1
w 178 -177 160 1
w 178 -177 -160 1
w 179 178 161 0
w 179 178 -161 0
w 179 -178 161 1
w 179 -178 -161 0
w 180 179 162 0.586163
w 180 179 -162 0.195806
w 180 -179 162 0.616825
w 180 -179 -162 0.118708
w 181 163 0
w 181 -163 1
w 182 181 164 0.442612
w 182 181 -164 0.164954
w 182 -181 164 0.874336
w 182 -181 -164 0.869773
w 183 182 165 0.488473
w 183 182 -165 0.744165
w 183 -182 165 0.0503236
w 183 -182 -165 0.926369
w 184 183 166 1
w 184 183 -166 0
w 184 -183 166 0
w 184 -183 -166 0
w 185 184 167 1
w 185 184 -167 0
w 185 -184 167 0
w 185 -184 -167 1
w 186 185 168 0.652228
w 186 185 -168 0.616432
w 186 -185 168 0.760097
w 186 -185 -168 0.238391
w 187 186 169 0.376923
w 187 186 -169 0.357099
w 187 -186 169 0.396149
w 187 -186 -169 0.279115
w 188 187 170 1
w 188 187 -170 1
w 188 -187 170 0
w 188 -187 -170 1
w 189 188 171 0
w 189 188 -171 0
w 189 -188 171 1
w 189 -188 -171 0
w 190 189 172 0.13634
w 190 189 -172 0.225188
w 190 -189 172 0.237453
w 190 -189 -172 0.826826
w 191 190 173 0.558866
w 191 190 -173 0.954402
w 191 -190 173 0.902829
w 191 -190 -173 0.227971
w 192 191 174 1
w 192 191 -174 0
w 192 -191 174 0
w 192 -191 -174 1
w 193 192 175 1
w 193 192 -175 1
w 193 -192 175 0
w 193 -192 -175 1
w 194 193 176 0
w 194 193 -176 0
w 194 -193 176 0
w 194 -193 -176 1
w 195 194 177 0
w 195 194 -177 1
w 195 -194 177 1
w 195 -194 -177 0
w 196 195 178 1
w 196 195 -178 0
w 196 -195 178 1
w 196 -195 -178 1
w 197 196 179 0
w 197 196 -179 0
w 197 -196 179 1
w 197 -196 -179 1
w 198 197 180 0.0277107
w 198 197 -180 0.910298
w 198 -197 180 0.601976
w 198 -197 -180 0.670215
w 199 181 1
w 199 -181 0
w 200 199 182 0
w 200 199 -182 0
w 200 -199 182 1
w 200 -199 -182 1
w 201 200 183 1
w 201 200 -183 1
w 201 -200 183 1
w 201 -200 -183 0
w 202 201 184 0.780272
w 202 201 -184 0.540323
w 202 -201 184 0.13692
w 202 -201 -184 0.786081
w 203 202 185 1
w 203 202 -185 1
w 203 -202 185 1
w 203 -202 -185 0
w 204 203 186 0.484166
w 204 203 -186 0.988613
w 204 -203 186 0.86157
w 204 -203 -186 0.25685
w 205 204 187 1
w 205 204 -187 1
w 205 -204 187 0
w 205 -204 -187 1
w 206 205 188 1
w 206 205 -188 0
w 206 -205 188 0
w 206 -205 -188 0
w 207 206 189 1
w 207 206 -189 0
w 207 -206 189 1
w 207 -206 -189 1
w 208 207 190 0.0640138
w 208 207 -190 0.533547
w 208 -207 190 0.887713
w 208 -207 -190 0.850095
w 209 208 191 0.488547
w 209 208 -191 0.879437
w 209 -208 191 0.776809
w 209 -208 -191 0.331856
w 210 209 192 1
w 210 209 -192 1
w 210 -209 192 1
w 210 -209 -192 0
w 211 210 193 0
w 211 210 -193 0
w 211 -210 193 0
w 211 -210 -193 1
w 212 211 194 1
w 212 211 -194 0
w 212 -211 194 1
w 212 -211 -194 1
w 213 212 195 1
w 213 212 -195 0
w 213 -212 195 1
w 213 -212 -195 1
w 214 213 196 0.648597
w 214 213 -196 0.751402
w 214 -213 196 0.385804
w 214 -213 -196 0.53631
w 215 214 197 0
w 215 214 -197 1
w 215 -214 197 0
w 215 -214 -197 1
w 216 215 198 0
w 216 215 -198 0
w 216 -215 198 1
w 216 -215 -198 1
w 217 199 0.0139727
w 217 -199 0.108666
w 218 217 200 1
w 218 217 -200 0
w 218 -217 200 1
w 218 -217 -200 0
w 219 218 201 0
w 219 218 -201 1
w 219 -218 201 1
w 219 -218 -201 0
w 220 219 202 0
w 220 219 -202 1
w 220 -219 202 1
w 220 -219 -202 1
w 221 220 203 0
w 221 220 -203 1
w 221 -220 203 1
w 221 -220 -203 1
w 222 221 204 0.436885
w 222 221 -204 0.551129
w 222 -221 204 0.213691
w 222 -221 -204 0.628726
w 223 222 205 0.890872
w 223 222 -205 0.393046
w 223 -222 205 0.621063
w 223 -222 -205 0.904844
w 224 223 206 1
w 224 223 -206 1
w 224 -223 206 1
w 224 -223 -206 0
w 225 224 207 0
w 225 224 -207 1
w 225 -224 207 0
w 225 -224 -207 1
w 226 225 208 0.639367
w 226 225 -208 0.856306
w 226 -225 208 0.471851
w 226 -225 -208 0.551344
w 227 226 209 0
w 227 226 -209 0
w 227 -226 209 0
w 227 -226 -209 1
w 228 227 210 0
w 228 227 -210 0
w 228 -227 210 1
w 228 -227 -210 1
w 229 228 211 0.763487
w 229 228 -211 0.94578
w 229 -228 211 0.240915
w 229 -228 -211 0.38455
w 230 229 212 0.742627
w 230 229 -212 0.176145
w 230 -229 212 0.792771
w 230 -229 -212 0.498109
w 231 230 213 0
w 231 230 -213 1
w 231 -230 213 1
w 231 -230 -213 1
w 232 231 214 0
w 232 231 -214 1
w 232 -231 214 1
w 232 -231 -214 0
w 233 232 215 0.175308
w 233 232 -215 0.737342
w 233 -232 215 0.791214
w 233 -232 -215 0.159547
w 234 233 216 0
w 234 233 -216 1
w 234 -233 216 1
w 234 -233 -216 1
w 235 217 1
w 235 -217 0
w 236 235 218 0
w 236 235 -218 0
w 236 -235 218 1
w 236 -235 -218 0
w 237 236 219 0
w 237 236 -219 1
w 237 -236 219 1
w 237 -236 -219 0
w 238 237 220 0
w 238 237 -220 1
w 238 -237 220 0
w 238 -237 -220 0
w 239 238 221 0.216128
w 239 238 -221 0.974738
w 239 -238 221 0.900797
w 239 -238 -221 0.391436
w 240 239 222 1
w 240 239 -222 0
w 240 -239 222 1
w 240 -239 -222 1
w 241 240 223 1
w 241 240 -223 0
w 241 -240 223 0
w 241 -240 -223 0
w 242 241 224 0.608872
w 242 241 -224 0.384556
w 242 -241 224 0.117995
w 242 -241 -224 0.460948
w 243 242 225 0.554867
w 243 242 -225 0.105796
w 243 -242 225 0.0229694
w 243 -242 -225 0.608996
w 244 243 226 0.0490225
w 244 243 -226 0.233512
w 244 -243 226 0.490335
w 244 -243 -226 0.24196
w 245 244 227 1
w 245 244 -227 0
w 245 -244 227 0
w 245 -244 -227 0
w 246 245 228 0.984031
w 246 245 -228 0.0418495
w 246 -245 228 0.400507
w 246 -245 -228 0.215711
w 247 246 229 0.952254
w 247 246 -229 0.186132
w 247 -246 229 0.891339
w 247 -246 -229 0.559673
w 248 247 230 0
w 248 247 -230 1
w 248 -247 230 0
w 248 -247 -230 0
w 249 248 231 1
w 249 248 -231 0
w 249 -248 231 0
w 249 -248 -231 1
w 250 249 232 1
w 250 249 -232 0
w 250 -249 232 1
w 250 -249 -232 0
w 251 250 233 0
w 251 250 -233 0
w 251 -250 233 0
w 251 -250 -233 1
w 252 251 234 0
w 252 251 -234 1
w 252 -251 234 0
w 252 -251 -234 0
w 253 235 0.0567521
w 253 -235 0.219017
w 254 253 236 0.616426
w 254 253 -236 0.962181
w 254 -253 236 0.538922
w 254 -253 -236 0.784971
w 255 254 237 1
w 255 254 -237 0
w 255 -254 237 1
w 255 -254 -237 0
w 256 255 238 0
w 256 255 -238 0
w 256 -255 238 1
w 256 -255 -238 1
w 257 256 239 1
w 257 256 -239 0
w 257 -256 239 0
w 257 -256 -239 0
w 258 257 240 1
w 258 257 -240 0
w 258 -257 240 1
w 258 -257 -240 0
w 259 258 241 1
w 259 258 -241 0
w 259 -258 241 0
w 259 -258 -241 1
w 260 259 242 1
w 260 259 -242 0
w 260 -259 242 1
w 260 -259 -242 0
w 261 260 243 0
w 261 260 -243 0
w 261 -260 243 0
w 261 -260 -243 1
w 262 261 244 0
w 262 261 -244 1
w 262 -261 244 0
w 262 -261 -244 0
w 263 262 245 0.276689
w 263 262 -245 0.347665
w 263 -262 245 0.610318
w 263 -262 -245 0.829147
w 264 263 246 0
w 264 263 -246 0
w 264 -263 246 1
w 264 -263 -246 1
w 265 264 247 0.909139
w 265 264 -247 0.824862
w 265 -264 247 0.203586
w 265 -264 -247 0.457378
w 266 265 248 1
w 266 265 -248 1
w 266 -265 248 0
w 266 -265 -248 0
w 267 266 249 1
w 267 266 -249 0
w 267 -266 249 1
w 267 -266 -249 1
w 268 267 250 1
w 268 267 -250 0
w 268 -267 250 0
w 268 -267 -250 1
w 269 268 251 0
w 269 268 -251 1
w 269 -268 251 0
w 269 -268 -251 0
w 270 269 252 0
w 270 269 -252 1
w 270 -269 252 1
w 270 -269 -252 0
w 271 253 1
w 271 -253 0
w 272 271 254 0.225354
w 272 271 -254 0.171546
w 272 -271 254 0.331768
w 272 -271 -254 0.606295
w 273 272 255 0.288505
w 273 272 -255 0.703514
w 273 -272 255 0.365267
w 273 -272 -255 0.882172
w 274 273 256 0.301046
w 274 273 -256 0.285099
w 274 -273 256 0.0903493
w 274 -273 -256 0.750678
w 275 274 257 0.064418
w 275 274 -257 0.521582
w 275 -274 257 0.784063
w 275 -274 -257 0.966177
w 276 275 258 1
w 276 275 -258 1
w 276 -275 258 0
w 276 -275 -258 0
w 277 276 259 1
w 277 276 -259 1
w 277 -276 259 0
w 277 -276 -259 0
w 278 277 260 1
w 278 277 -260 0
w 278 -277 260 1
w 278 -277 -260 0
w 279 278 261 1
w 279 278 -261 1
w 279 -278 261 0
w 279 -278 -261 0
w 280 279 262 1
w 280 279 -262 1
w 280 -279 262 0
w 280 -279 -262 0
w 281 280 263 0
w 281 280 -263 0
w 281 -280 263 1
w 281 -280 -263 1
w 282 281 264 0
w 282 281 -264 1
w 282 -281 264 1
w 282 -281 -264 0
w 283 282 265 1
w 283 282 -265 0
w 283 -282 265 0
w 283 -282 -265 1
w 284 283 266 1
w 284 283 -266 0
w 284 -283 266 0
w 284 -283 -266 0
w 285 284 267 1
w 285 284 -267 0
w 285 -284 267 1
w 285 -284 -267 1
w 286 285 268 0
w 286 285 -268 0
w 286 -285 268 1
w 286 -285 -268 0
w 287 286 269 0
w 287 286 -269 0
w 287 -286 269 1
w 287 -286 -269 1
w 288 287 270 0
w 288 287 -270 0
w 288 -287 270 1
w 288 -287 -270 1
w 289 271 0
w 289 -271 1
w 290 289 272 0
w 290 289 -272 0
w 290 -289 272 1
w 290 -289 -272 0
w 291 290 273 0.620911
w 291 290 -273 0.782603
w 291 -290 273 0.701942
w 291 -290 -273 0.283864
w 292 291 274 0
w 292 291 -274 0
w 292 -291 274 1
w 292 -291 -274 0
w 293 292 275 0
w 293 292 -275 1
w 293 -292 275 0
w 293 -292 -275 0
w 294 293 276 1
w 294 293 -276 0
w 294 -293 276 1
w 294 -293 -276 1
w 295 294 277 1
w 295 294 -277 0
w 295 -294 277 0
w 295 -294 -277 1
w 296 295 278 1
w 296 295 -278 1
w 296 -295 278 1
w 296 -295 -278 0
w 297 296 279 0.963135
w 297 296 -279 0.370889
w 297 -296 279 0.203638
w 297 -296 -279 0.438746
w 298 297 280 0.906404
w 298 297 -280 0.815433
w 298 -297 280 0.442032
w 298 -297 -280 0.666193
w 299 298 281 1
w 299 298 -281 0
w 299 -298 281 0
w 299 -298 -281 1
w 300 299 282 0.0837931
w 300 299 -282 0.418014
w 300 -299 282 0.403997
w 300 -299 -282 0.0723385
w 301 300 283 1
w 301 300 -283 0
w 301 -300 283 0
w 301 -300 -283 0
w 302 301 284 0
w 302 301 -284 1
w 302 -301 284 0
w 302 -301 -284 1
w 303 302 285 1
w 303 302 -285 1
w 303 -302 285 0
w 303 -302 -285 1
w 304 303 286 0
w 304 303 -286 1
w 304 -303 286 1
w 304 -303 -286 1
w 305 304 287 0
w 305 304 -287 0
w 305 -304 287 0
w 305 -304 -287 1
w 306 305 288 0
w 306 305 -288 0
w 306 -305 288 1
w 306 -305 -288 1
w 307 289 0.850622
w 307 -289 0.125382
w 308 307 290 0
w 308 307 -290 0
w 308 -307 290 0
w 308 -307 -290 1
w 309 308 291 0
w 309 308 -291 1
w 309 -308 291 0
w 309 -308 -291 1
w 310 309 292 0.879928
w 310 309 -292 0.676321
w 310 -309 292 0.632453
w 310 -309 -292 0.6623
w 311 310 293 0.733297
w 311 310 -293 0.110866
w 311 -310 293 0.460968
w 311 -310 -293 0.701936
w 312 311 294 0.849987
w 312 311 -294 0.213343
w 312 -311 294 0.645166
w 312 -311 -294 0.322798
w 313 312 295 0
w 313 312 -295 0
w 313 -312 295 1
w 313 -312 -295 1
w 314 313 296 0.32535
w 314 313 -296 0.495219
w 314 -313 296 0.572405
w 314 -313 -296 0.447324
w 315 314 297 0
w 315 314 -297 1
w 315 -314 297 0
w 315 -314 -297 0
w 316 315 298 0.318584
w 316 315 -298 0.787923
w 316 -315 298 0.520059
w 316 -315 -298 0.951036
w 317 316 299 0
w 317 316 -299 1
w 317 -316 299 1
w 317 -316 -299 0
w 318 317 300 0
w 318 317 -300 1
w 318 -317 300 0
w 318 -317 -300 0
w 319 318 301 1
w 319 318 -301 0
w 319 -318 301 0
w 319 -318 -301 0
w 320 319 302 1
w 320 319 -302 1
w 320 -319 302 0
w 320 -319 -302 1
w 321 320 303 1
w 321 320 -303 0
w 321 -320 303 0
w 321 -320 -303 0
w 322 321 304 1
w 322 321 -304 1
w 322 -321 304 0
w 322 -321 -304 1
w 323 322 305 0
w 323 322 -305 1
w 323 -322 305 0
w 323 -322 -305 0
w 324 323 306 0.682252
w 324 323 -306 0.79955
w 324 -323 306 0.453999
w 324 -323 -306 0.854161